(declare-fun x11 () Int) (declare-fun x12 () Int) (declare-fun x13 () Int) (declare-fun x14 () Int) (declare-fun x15 () Int) (declare-fun x16 () Int) (declare-fun x17 () Int) (declare-fun x18 () Int) (declare-fun x19 () Int) (declare-fun x21 () Int) (declare-fun x22 () Int) (declare-fun x23 () Int) (declare-fun x24 () Int) (declare-fun x25 () Int) (declare-fun x26 () Int) (declare-fun x27 () Int) (declare-fun x28 () Int) (declare-fun x29 () Int) (declare-fun x31 () Int) (declare-fun x32 () Int) (declare-fun x33 () Int) (declare-fun x34 () Int) (declare-fun x35 () Int) (declare-fun x36 () Int) (declare-fun x37 () Int) (declare-fun x38 () Int) (declare-fun x39 () Int) (declare-fun x41 () Int) (declare-fun x42 () Int) (declare-fun x43 () Int) (declare-fun x44 () Int) (declare-fun x45 () Int) (declare-fun x46 () Int) (declare-fun x47 () Int) (declare-fun x48 () Int) (declare-fun x49 () Int) (declare-fun x51 () Int) (declare-fun x52 () Int) (declare-fun x53 () Int) (declare-fun x54 () Int) (declare-fun x55 () Int) (declare-fun x56 () Int) (declare-fun x57 () Int) (declare-fun x58 () Int) (declare-fun x59 () Int) (declare-fun x61 () Int) (declare-fun x62 () Int) (declare-fun x63 () Int) (declare-fun x64 () Int) (declare-fun x65 () Int) (declare-fun x66 () Int) (declare-fun x67 () Int) (declare-fun x68 () Int) (declare-fun x69 () Int) (declare-fun x71 () Int) (declare-fun x72 () Int) (declare-fun x73 () Int) (declare-fun x74 () Int) (declare-fun x75 () Int) (declare-fun x76 () Int) (declare-fun x77 () Int) (declare-fun x78 () Int) (declare-fun x79 () Int) (declare-fun x81 () Int) (declare-fun x82 () Int) (declare-fun x83 () Int) (declare-fun x84 () Int) (declare-fun x85 () Int) (declare-fun x86 () Int) (declare-fun x87 () Int) (declare-fun x88 () Int) (declare-fun x89 () Int) (declare-fun x91 () Int) (declare-fun x92 () Int) (declare-fun x93 () Int) (declare-fun x94 () Int) (declare-fun x95 () Int) (declare-fun x96 () Int) (declare-fun x97 () Int) (declare-fun x98 () Int) (declare-fun x99 () Int) (assert (and (>= x11 1) (>= 9 x11) (>= x12 1) (>= 9 x12) (>= x13 1) (>= 9 x13) (>= x14 1) (>= 9 x14) (>= x15 1) (>= 9 x15) (>= x16 1) (>= 9 x16) (>= x17 1) (>= 9 x17) (>= x18 1) (>= 9 x18) (>= x19 1) (>= 9 x19) (>= x21 1) (>= 9 x21) (>= x22 1) (>= 9 x22) (>= x23 1) (>= 9 x23) (>= x24 1) (>= 9 x24) (>= x25 1) (>= 9 x25) (>= x26 1) (>= 9 x26) (>= x27 1) (>= 9 x27) (>= x28 1) (>= 9 x28) (>= x29 1) (>= 9 x29) (>= x31 1) (>= 9 x31) (>= x32 1) (>= 9 x32) (>= x33 1) (>= 9 x33) (>= x34 1) (>= 9 x34) (>= x35 1) (>= 9 x35) (>= x36 1) (>= 9 x36) (>= x37 1) (>= 9 x37) (>= x38 1) (>= 9 x38) (>= x39 1) (>= 9 x39) (>= x41 1) (>= 9 x41) (>= x42 1) (>= 9 x42) (>= x43 1) (>= 9 x43) (>= x44 1) (>= 9 x44) (>= x45 1) (>= 9 x45) (>= x46 1) (>= 9 x46) (>= x47 1) (>= 9 x47) (>= x48 1) (>= 9 x48) (>= x49 1) (>= 9 x49) (>= x51 1) (>= 9 x51) (>= x52 1) (>= 9 x52) (>= x53 1) (>= 9 x53) (>= x54 1) (>= 9 x54) (>= x55 1) (>= 9 x55) (>= x56 1) (>= 9 x56) (>= x57 1) (>= 9 x57) (>= x58 1) (>= 9 x58) (>= x59 1) (>= 9 x59) (>= x61 1) (>= 9 x61) (>= x62 1) (>= 9 x62) (>= x63 1) (>= 9 x63) (>= x64 1) (>= 9 x64) (>= x65 1) (>= 9 x65) (>= x66 1) (>= 9 x66) (>= x67 1) (>= 9 x67) (>= x68 1) (>= 9 x68) (>= x69 1) (>= 9 x69) (>= x71 1) (>= 9 x71) (>= x72 1) (>= 9 x72) (>= x73 1) (>= 9 x73) (>= x74 1) (>= 9 x74) (>= x75 1) (>= 9 x75) (>= x76 1) (>= 9 x76) (>= x77 1) (>= 9 x77) (>= x78 1) (>= 9 x78) (>= x79 1) (>= 9 x79) (>= x81 1) (>= 9 x81) (>= x82 1) (>= 9 x82) (>= x83 1) (>= 9 x83) (>= x84 1) (>= 9 x84) (>= x85 1) (>= 9 x85) (>= x86 1) (>= 9 x86) (>= x87 1) (>= 9 x87) (>= x88 1) (>= 9 x88) (>= x89 1) (>= 9 x89) (>= x91 1) (>= 9 x91) (>= x92 1) (>= 9 x92) (>= x93 1) (>= 9 x93) (>= x94 1) (>= 9 x94) (>= x95 1) (>= 9 x95) (>= x96 1) (>= 9 x96) (>= x97 1) (>= 9 x97) (>= x98 1) (>= 9 x98) (>= x99 1) (>= 9 x99)))(assert (and (distinct x11 x12 x13 x21 x22 x23 x31 x32 x33) (distinct x14 x15 x16 x24 x25 x26 x34 x35 x36) (distinct x17 x18 x19 x27 x28 x29 x37 x38 x39) (distinct x41 x42 x43 x51 x52 x53 x61 x62 x63) (distinct x44 x45 x46 x54 x55 x56 x64 x65 x66) (distinct x47 x48 x49 x57 x58 x59 x67 x68 x69) (distinct x71 x72 x73 x81 x82 x83 x91 x92 x93) (distinct x74 x75 x76 x84 x85 x86 x94 x95 x96) (distinct x77 x78 x79 x87 x88 x89 x97 x98 x99)))(assert (and (distinct x11 x21 x31 x41 x51 x61 x71 x81 x91) (distinct x12 x22 x32 x42 x52 x62 x72 x82 x92) (distinct x13 x23 x33 x43 x53 x63 x73 x83 x93) (distinct x14 x24 x34 x44 x54 x64 x74 x84 x94) (distinct x15 x25 x35 x45 x55 x65 x75 x85 x95) (distinct x16 x26 x36 x46 x56 x66 x76 x86 x96) (distinct x17 x27 x37 x47 x57 x67 x77 x87 x97) (distinct x18 x28 x38 x48 x58 x68 x78 x88 x98) (distinct x19 x29 x39 x49 x59 x69 x79 x89 x99)))(assert (and (distinct x11 x12 x13 x14 x15 x16 x17 x18 x19) (distinct x21 x22 x23 x24 x25 x26 x27 x28 x29) (distinct x31 x32 x33 x34 x35 x36 x37 x38 x39) (distinct x41 x42 x43 x44 x45 x46 x47 x48 x49) (distinct x51 x52 x53 x54 x55 x56 x57 x58 x59) (distinct x61 x62 x63 x64 x65 x66 x67 x68 x69) (distinct x71 x72 x73 x74 x75 x76 x77 x78 x79) (distinct x81 x82 x83 x84 x85 x86 x87 x88 x89) (distinct x91 x92 x93 x94 x95 x96 x97 x98 x99)))(assert (and (= 3 (+ x11 x12)) (= 15 (+ x13 x14 x15)) (= 22 (+ x16 x25 x26 x35)) (= 4 (+ x17 x27)) (= 16 (+ x18 x28)) (= 15 (+ x19 x29 x39 x49)) (= 25 (+ x21 x22 x31 x32)) (= 17 (+ x23 x24)) (= 9 (+ x33 x34 x44)) (= 8 (+ x36 x46 x56)) (= 20 (+ x37 x38 x47)) (= 6 (+ x41 x51)) (= 14 (+ x42 x43)) (= 17 (+ x45 x55 x65)) (= 17 (+ x48 x57 x58)) (= 13 (+ x52 x53 x62)) (= 20 (+ x54 x64 x74)) (= 12 (+ x59 x69)) (= 27 (+ x61 x71 x81 x91)) (= 6 (+ x63 x72 x73)) (= 20 (+ x66 x76 x77)) (= 6 (+ x67 x68)) (= 10 (+ x75 x84 x85 x94)) (= 14 (+ x78 x79 x88 x89)) (= 8 (+ x82 x92)) (= 16 (+ x83 x93)) (= 15 (+ x86 x87)) (= 13 (+ x95 x96 x97)) (= 17 (+ x98 x99))))(check-sat)(get-value (x11 x12 x13 x14 x15 x16 x17 x18 x19 x21 x22 x23 x24 x25 x26 x27 x28 x29 x31 x32 x33 x34 x35 x36 x37 x38 x39 x41 x42 x43 x44 x45 x46 x47 x48 x49 x51 x52 x53 x54 x55 x56 x57 x58 x59 x61 x62 x63 x64 x65 x66 x67 x68 x69 x71 x72 x73 x74 x75 x76 x77 x78 x79 x81 x82 x83 x84 x85 x86 x87 x88 x89 x91 x92 x93 x94 x95 x96 x97 x98 x99 ))